p cnf 29 45
-1 -2 0
-1 -4 0
-2 -5 0
-3 -4 0
-4 -5 0
6 0
29 0
-7 0
-8 0
-9 0
10 0
14 0
18 0
22 0
26 0
7 1 0
7 6 0
8 1 0
8 7 0
9 1 0
9 8 0
11 2 0
11 10 0
12 2 0
12 11 0
13 2 0
13 12 0
15 3 0
15 14 0
16 3 0
16 15 0
17 3 0
17 16 0
19 4 0
19 18 0
20 4 0
20 19 0
21 4 0
21 20 0
23 5 0
23 22 0
24 5 0
24 23 0
25 5 0
25 24 0